nLocations = 20;
nCities = 32;
nTypes = 3;

p = [1 15 38 32 12 21 32 7 19 27 12 18 29 10 8 15 23 31 19 19 40 22 34 20 26 33 28 12 28 27 5 24];
posCities = [[26 13] [24 25] [10 24] [21 25] [1 14] [22 14] [19 16] [19 25] [5 21] [4 0] [10 7] [23 20] [7 17] [8 21] [19 26] [23 15] [12 0] [21 3] [20 24] [2 5] [0 1] [11 6] [3 1] [10 12] [25 26] [22 24] [0 24] [16 4] [4 17] [13 8] [7 5] [11 20]];
posLocations = [[12 0] [21 8] [9 3] [25 1] [25 8] [8 1] [9 24] [10 16] [5 14] [18 10] [21 0] [0 26] [23 9] [20 6] [18 2] [6 5] [18 25] [14 22] [25 11] [16 3]];

d_city = [6 10 17];
cap = [51 113 133];
cost = [14 16 45];

d_center = 1.1;
